language Essence 1.3

letting blksize_delta be function(1 --> 2, 2 --> 2, 3 --> 2, 4 --> 2)
letting maxcars be function(1 --> 10, 2 --> 9, 3 --> 10, 4 --> 10)
letting n_cars be 177
letting n_classes be 2
letting n_options be 4
letting quantity be function(1 --> 89, 2 --> 88)
letting usage be relation((1, 3), (2, 1), (2, 2), (2, 4))
$ Visualisation for usage
$ 1 3
$ 2 1
$ 2 2
$ 2 4

